60
1 0 36
2 0 94
2 1 62
3 0 79
3 1 42
3 2 24
4 0 51
4 1 32
4 2 85
4 3 80
5 0 80
5 1 36
5 2 9
5 3 81
5 4 15
6 0 60
6 1 18
6 2 68
6 3 6
6 4 37
6 5 43
7 0 37
7 1 74
7 2 60
7 3 48
7 4 97
7 5 79
7 6 21
8 0 83
8 1 39
8 2 46
8 3 63
8 4 34
8 5 48
8 6 71
8 7 48
9 0 62
9 1 18
9 2 23
9 3 41
9 4 100
9 5 54
9 6 35
9 7 69
9 8 63
10 0 50
10 1 34
10 2 14
10 3 95
10 4 90
10 5 50
10 6 30
10 7 38
10 8 20
10 9 28
11 0 10
11 1 31
11 2 66
11 3 2
11 4 42
11 5 33
11 6 16
11 7 27
11 8 17
11 9 59
11 10 85
12 0 71
12 1 89
12 2 69
12 3 17
12 4 5
12 5 99
12 6 24
12 7 21
12 8 60
12 9 8
12 10 38
12 11 18
13 0 28
13 1 6
13 2 55
13 3 59
13 4 20
13 5 93
13 6 51
13 7 46
13 8 25
13 9 40
13 10 37
13 11 48
13 12 18
14 0 85
14 1 97
14 2 15
14 3 19
14 4 20
14 5 16
14 6 17
14 7 2
14 8 75
14 9 57
14 10 70
14 11 92
14 12 99
14 13 94
15 0 14
15 1 19
15 2 99
15 3 31
15 4 72
15 5 8
15 6 89
15 7 43
15 8 96
15 9 16
15 10 51
15 11 22
15 12 70
15 13 61
15 14 27
16 0 20
16 1 46
16 2 93
16 3 73
16 4 24
16 5 15
16 6 100
16 7 56
16 8 97
16 9 49
16 10 59
16 11 77
16 12 72
16 13 61
16 14 66
16 15 46
17 0 89
17 1 78
17 2 16
17 3 39
17 4 2
17 5 8
17 6 2
17 7 23
17 8 8
17 9 57
17 10 59
17 11 21
17 12 64
17 13 32
17 14 86
17 15 51
17 16 100
18 0 22
18 1 4
18 2 73
18 3 46
18 4 55
18 5 36
18 6 13
18 7 19
18 8 62
18 9 27
18 10 59
18 11 56
18 12 8
18 13 30
18 14 44
18 15 79
18 16 64
18 17 33
19 0 60
19 1 16
19 2 28
19 3 98
19 4 69
19 5 45
19 6 26
19 7 36
19 8 6
19 9 5
19 10 47
19 11 44
19 12 89
19 13 3
19 14 87
19 15 75
19 16 81
19 17 19
19 18 20
20 0 23
20 1 71
20 2 65
20 3 14
20 4 28
20 5 61
20 6 83
20 7 47
20 8 52
20 9 91
20 10 56
20 11 15
20 12 72
20 13 23
20 14 81
20 15 24
20 16 86
20 17 77
20 18 36
20 19 4
21 0 40
21 1 85
21 2 27
21 3 95
21 4 13
21 5 5
21 6 1
21 7 90
21 8 21
21 9 19
21 10 63
21 11 34
21 12 26
21 13 96
21 14 27
21 15 22
21 16 60
21 17 97
21 18 2
21 19 26
21 20 8
22 0 65
22 1 83
22 2 60
22 3 97
22 4 8
22 5 88
22 6 74
22 7 93
22 8 76
22 9 90
22 10 99
22 11 7
22 12 3
22 13 5
22 14 14
22 15 48
22 16 41
22 17 55
22 18 11
22 19 88
22 20 23
22 21 3
23 0 50
23 1 22
23 2 29
23 3 42
23 4 56
23 5 35
23 6 42
23 7 78
23 8 92
23 9 16
23 10 19
23 11 28
23 12 4
23 13 70
23 14 3
23 15 58
23 16 29
23 17 29
23 18 67
23 19 85
23 20 16
23 21 62
23 22 63
24 0 54
24 1 88
24 2 20
24 3 8
24 4 52
24 5 52
24 6 93
24 7 32
24 8 12
24 9 40
24 10 39
24 11 77
24 12 38
24 13 31
24 14 23
24 15 23
24 16 30
24 17 90
24 18 84
24 19 69
24 20 10
24 21 15
24 22 98
24 23 97
25 0 73
25 1 5
25 2 26
25 3 10
25 4 7
25 5 50
25 6 53
25 7 14
25 8 60
25 9 38
25 10 56
25 11 74
25 12 50
25 13 24
25 14 64
25 15 81
25 16 47
25 17 87
25 18 96
25 19 3
25 20 70
25 21 95
25 22 89
25 23 10
25 24 75
26 0 42
26 1 45
26 2 84
26 3 34
26 4 23
26 5 68
26 6 69
26 7 25
26 8 74
26 9 78
26 10 20
26 11 91
26 12 76
26 13 100
26 14 44
26 15 29
26 16 15
26 17 81
26 18 58
26 19 14
26 20 44
26 21 83
26 22 91
26 23 91
26 24 75
26 25 48
27 0 19
27 1 63
27 2 21
27 3 39
27 4 7
27 5 68
27 6 46
27 7 1
27 8 80
27 9 37
27 10 1
27 11 90
27 12 80
27 13 53
27 14 54
27 15 80
27 16 52
27 17 63
27 18 38
27 19 27
27 20 70
27 21 24
27 22 87
27 23 58
27 24 19
27 25 63
27 26 17
28 0 25
28 1 60
28 2 98
28 3 78
28 4 19
28 5 74
28 6 52
28 7 97
28 8 54
28 9 40
28 10 39
28 11 66
28 12 61
28 13 6
28 14 26
28 15 63
28 16 39
28 17 62
28 18 81
28 19 100
28 20 74
28 21 94
28 22 78
28 23 41
28 24 10
28 25 28
28 26 6
28 27 33
29 0 30
29 1 46
29 2 3
29 3 35
29 4 98
29 5 53
29 6 28
29 7 55
29 8 49
29 9 43
29 10 24
29 11 18
29 12 36
29 13 53
29 14 40
29 15 18
29 16 85
29 17 40
29 18 18
29 19 48
29 20 93
29 21 9
29 22 67
29 23 95
29 24 84
29 25 61
29 26 63
29 27 42
29 28 11
30 0 64
30 1 74
30 2 30
30 3 57
30 4 50
30 5 71
30 6 61
30 7 86
30 8 92
30 9 89
30 10 36
30 11 32
30 12 24
30 13 56
30 14 74
30 15 46
30 16 93
30 17 79
30 18 65
30 19 21
30 20 75
30 21 84
30 22 19
30 23 74
30 24 70
30 25 32
30 26 39
30 27 59
30 28 79
30 29 57
31 0 38
31 1 24
31 2 26
31 3 7
31 4 50
31 5 61
31 6 55
31 7 80
31 8 26
31 9 86
31 10 48
31 11 82
31 12 13
31 13 59
31 14 21
31 15 58
31 16 45
31 17 46
31 18 5
31 19 64
31 20 6
31 21 49
31 22 10
31 23 84
31 24 45
31 25 92
31 26 35
31 27 11
31 28 42
31 29 13
31 30 80
32 0 50
32 1 60
32 2 14
32 3 52
32 4 4
32 5 41
32 6 64
32 7 86
32 8 50
32 9 14
32 10 52
32 11 30
32 12 34
32 13 35
32 14 55
32 15 42
32 16 12
32 17 85
32 18 36
32 19 19
32 20 46
32 21 65
32 22 18
32 23 45
32 24 13
32 25 97
32 26 79
32 27 31
32 28 88
32 29 11
32 30 69
32 31 93
33 0 26
33 1 63
33 2 55
33 3 62
33 4 24
33 5 27
33 6 28
33 7 63
33 8 60
33 9 54
33 10 34
33 11 78
33 12 45
33 13 95
33 14 20
33 15 84
33 16 15
33 17 19
33 18 2
33 19 42
33 20 53
33 21 85
33 22 90
33 23 66
33 24 38
33 25 37
33 26 38
33 27 9
33 28 39
33 29 47
33 30 93
33 31 30
33 32 4
34 0 15
34 1 76
34 2 49
34 3 27
34 4 93
34 5 99
34 6 87
34 7 78
34 8 13
34 9 19
34 10 51
34 11 26
34 12 19
34 13 74
34 14 24
34 15 15
34 16 32
34 17 48
34 18 51
34 19 37
34 20 17
34 21 79
34 22 41
34 23 42
34 24 9
34 25 76
34 26 33
34 27 69
34 28 27
34 29 41
34 30 83
34 31 74
34 32 86
34 33 94
35 0 69
35 1 17
35 2 77
35 3 45
35 4 36
35 5 8
35 6 86
35 7 71
35 8 20
35 9 41
35 10 60
35 11 93
35 12 15
35 13 56
35 14 56
35 15 44
35 16 79
35 17 12
35 18 10
35 19 90
35 20 4
35 21 62
35 22 30
35 23 49
35 24 78
35 25 59
35 26 3
35 27 95
35 28 11
35 29 44
35 30 45
35 31 63
35 32 33
35 33 77
35 34 62
36 0 95
36 1 54
36 2 30
36 3 82
36 4 75
36 5 58
36 6 44
36 7 90
36 8 52
36 9 69
36 10 19
36 11 66
36 12 60
36 13 10
36 14 94
36 15 2
36 16 64
36 17 54
36 18 28
36 19 79
36 20 3
36 21 11
36 22 100
36 23 86
36 24 6
36 25 30
36 26 75
36 27 45
36 28 9
36 29 94
36 30 17
36 31 64
36 32 85
36 33 38
36 34 39
36 35 24
37 0 70
37 1 27
37 2 25
37 3 86
37 4 63
37 5 53
37 6 58
37 7 65
37 8 12
37 9 68
37 10 42
37 11 12
37 12 15
37 13 38
37 14 10
37 15 88
37 16 10
37 17 91
37 18 39
37 19 42
37 20 36
37 21 5
37 22 27
37 23 15
37 24 73
37 25 42
37 26 6
37 27 27
37 28 92
37 29 34
37 30 86
37 31 28
37 32 97
37 33 75
37 34 45
37 35 21
37 36 21
38 0 80
38 1 45
38 2 81
38 3 2
38 4 5
38 5 1
38 6 27
38 7 71
38 8 44
38 9 52
38 10 34
38 11 14
38 12 50
38 13 14
38 14 78
38 15 95
38 16 42
38 17 93
38 18 51
38 19 49
38 20 93
38 21 23
38 22 6
38 23 81
38 24 23
38 25 18
38 26 3
38 27 39
38 28 22
38 29 83
38 30 60
38 31 39
38 32 95
38 33 8
38 34 51
38 35 54
38 36 97
38 37 39
39 0 98
39 1 16
39 2 96
39 3 15
39 4 31
39 5 69
39 6 94
39 7 100
39 8 35
39 9 84
39 10 74
39 11 47
39 12 6
39 13 29
39 14 79
39 15 86
39 16 67
39 17 41
39 18 15
39 19 23
39 20 38
39 21 57
39 22 53
39 23 71
39 24 45
39 25 89
39 26 68
39 27 74
39 28 18
39 29 60
39 30 29
39 31 89
39 32 26
39 33 31
39 34 38
39 35 20
39 36 15
39 37 81
39 38 84
40 0 48
40 1 80
40 2 35
40 3 58
40 4 78
40 5 83
40 6 40
40 7 37
40 8 3
40 9 71
40 10 28
40 11 37
40 12 63
40 13 92
40 14 34
40 15 5
40 16 36
40 17 87
40 18 49
40 19 89
40 20 8
40 21 17
40 22 18
40 23 90
40 24 90
40 25 54
40 26 31
40 27 28
40 28 84
40 29 40
40 30 44
40 31 33
40 32 23
40 33 94
40 34 52
40 35 60
40 36 37
40 37 22
40 38 85
40 39 3
41 0 7
41 1 67
41 2 3
41 3 27
41 4 20
41 5 86
41 6 14
41 7 64
41 8 42
41 9 60
41 10 34
41 11 49
41 12 53
41 13 66
41 14 73
41 15 62
41 16 29
41 17 60
41 18 10
41 19 29
41 20 64
41 21 66
41 22 89
41 23 94
41 24 49
41 25 62
41 26 50
41 27 49
41 28 71
41 29 93
41 30 87
41 31 3
41 32 96
41 33 81
41 34 77
41 35 20
41 36 38
41 37 93
41 38 47
41 39 49
41 40 32
42 0 87
42 1 45
42 2 40
42 3 72
42 4 59
42 5 58
42 6 10
42 7 80
42 8 42
42 9 80
42 10 99
42 11 98
42 12 52
42 13 17
42 14 52
42 15 45
42 16 68
42 17 99
42 18 85
42 19 68
42 20 87
42 21 23
42 22 39
42 23 79
42 24 9
42 25 49
42 26 43
42 27 58
42 28 28
42 29 21
42 30 7
42 31 63
42 32 32
42 33 5
42 34 42
42 35 89
42 36 55
42 37 33
42 38 72
42 39 42
42 40 16
42 41 10
43 0 81
43 1 42
43 2 44
43 3 42
43 4 13
43 5 69
43 6 81
43 7 62
43 8 13
43 9 97
43 10 4
43 11 73
43 12 85
43 13 9
43 14 7
43 15 43
43 16 4
43 17 62
43 18 40
43 19 13
43 20 1
43 21 54
43 22 93
43 23 2
43 24 10
43 25 28
43 26 70
43 27 28
43 28 53
43 29 85
43 30 1
43 31 69
43 32 94
43 33 15
43 34 65
43 35 35
43 36 96
43 37 57
43 38 49
43 39 36
43 40 50
43 41 49
43 42 47
44 0 54
44 1 72
44 2 31
44 3 81
44 4 58
44 5 81
44 6 15
44 7 2
44 8 20
44 9 3
44 10 20
44 11 88
44 12 27
44 13 72
44 14 54
44 15 66
44 16 84
44 17 11
44 18 88
44 19 11
44 20 66
44 21 23
44 22 37
44 23 11
44 24 59
44 25 21
44 26 66
44 27 85
44 28 91
44 29 80
44 30 73
44 31 9
44 32 62
44 33 85
44 34 18
44 35 76
44 36 98
44 37 14
44 38 2
44 39 2
44 40 8
44 41 82
44 42 16
44 43 52
45 0 17
45 1 13
45 2 15
45 3 40
45 4 91
45 5 53
45 6 78
45 7 47
45 8 90
45 9 12
45 10 70
45 11 33
45 12 13
45 13 6
45 14 12
45 15 65
45 16 16
45 17 39
45 18 26
45 19 67
45 20 16
45 21 47
45 22 13
45 23 71
45 24 21
45 25 98
45 26 71
45 27 32
45 28 46
45 29 96
45 30 79
45 31 21
45 32 95
45 33 70
45 34 82
45 35 21
45 36 28
45 37 20
45 38 74
45 39 86
45 40 50
45 41 53
45 42 58
45 43 38
45 44 74
46 0 48
46 1 8
46 2 11
46 3 53
46 4 10
46 5 2
46 6 71
46 7 93
46 8 17
46 9 69
46 10 64
46 11 74
46 12 68
46 13 75
46 14 80
46 15 50
46 16 85
46 17 64
46 18 27
46 19 9
46 20 20
46 21 87
46 22 53
46 23 8
46 24 81
46 25 25
46 26 73
46 27 18
46 28 74
46 29 70
46 30 70
46 31 32
46 32 23
46 33 14
46 34 87
46 35 43
46 36 13
46 37 83
46 38 34
46 39 76
46 40 72
46 41 91
46 42 69
46 43 38
46 44 96
46 45 9
47 0 22
47 1 23
47 2 56
47 3 89
47 4 87
47 5 76
47 6 72
47 7 70
47 8 92
47 9 16
47 10 23
47 11 51
47 12 11
47 13 67
47 14 36
47 15 38
47 16 6
47 17 38
47 18 71
47 19 67
47 20 85
47 21 62
47 22 94
47 23 74
47 24 25
47 25 87
47 26 7
47 27 75
47 28 1
47 29 65
47 30 77
47 31 52
47 32 10
47 33 96
47 34 80
47 35 75
47 36 95
47 37 19
47 38 57
47 39 11
47 40 90
47 41 48
47 42 43
47 43 85
47 44 50
47 45 14
47 46 16
48 0 99
48 1 46
48 2 39
48 3 88
48 4 27
48 5 22
48 6 67
48 7 16
48 8 44
48 9 56
48 10 33
48 11 17
48 12 52
48 13 69
48 14 20
48 15 20
48 16 8
48 17 63
48 18 69
48 19 77
48 20 82
48 21 10
48 22 10
48 23 18
48 24 78
48 25 93
48 26 56
48 27 34
48 28 13
48 29 81
48 30 58
48 31 4
48 32 37
48 33 2
48 34 20
48 35 18
48 36 20
48 37 24
48 38 30
48 39 51
48 40 69
48 41 77
48 42 42
48 43 93
48 44 22
48 45 67
48 46 23
48 47 42
49 0 49
49 1 60
49 2 47
49 3 10
49 4 57
49 5 48
49 6 11
49 7 4
49 8 65
49 9 27
49 10 82
49 11 82
49 12 14
49 13 25
49 14 23
49 15 92
49 16 19
49 17 91
49 18 45
49 19 41
49 20 73
49 21 20
49 22 86
49 23 70
49 24 70
49 25 62
49 26 10
49 27 11
49 28 3
49 29 64
49 30 86
49 31 55
49 32 52
49 33 26
49 34 89
49 35 75
49 36 70
49 37 75
49 38 11
49 39 56
49 40 31
49 41 87
49 42 7
49 43 52
49 44 1
49 45 21
49 46 98
49 47 60
49 48 40
50 0 22
50 1 1
50 2 65
50 3 56
50 4 32
50 5 66
50 6 32
50 7 54
50 8 3
50 9 34
50 10 23
50 11 63
50 12 96
50 13 60
50 14 60
50 15 38
50 16 30
50 17 42
50 18 90
50 19 53
50 20 92
50 21 71
50 22 99
50 23 42
50 24 35
50 25 84
50 26 79
50 27 60
50 28 22
50 29 76
50 30 73
50 31 63
50 32 93
50 33 31
50 34 18
50 35 27
50 36 67
50 37 44
50 38 78
50 39 57
50 40 99
50 41 60
50 42 46
50 43 69
50 44 53
50 45 67
50 46 33
50 47 21
50 48 68
50 49 84
51 0 90
51 1 46
51 2 33
51 3 63
51 4 35
51 5 13
51 6 82
51 7 83
51 8 62
51 9 96
51 10 80
51 11 98
51 12 70
51 13 58
51 14 72
51 15 82
51 16 37
51 17 66
51 18 6
51 19 74
51 20 18
51 21 84
51 22 50
51 23 19
51 24 57
51 25 20
51 26 73
51 27 48
51 28 19
51 29 38
51 30 57
51 31 64
51 32 12
51 33 34
51 34 48
51 35 9
51 36 31
51 37 47
51 38 84
51 39 32
51 40 50
51 41 66
51 42 42
51 43 89
51 44 50
51 45 43
51 46 98
51 47 41
51 48 57
51 49 23
51 50 93
52 0 34
52 1 24
52 2 45
52 3 40
52 4 67
52 5 76
52 6 94
52 7 32
52 8 100
52 9 24
52 10 99
52 11 26
52 12 42
52 13 89
52 14 88
52 15 99
52 16 24
52 17 12
52 18 75
52 19 30
52 20 53
52 21 35
52 22 26
52 23 36
52 24 3
52 25 71
52 26 27
52 27 65
52 28 78
52 29 8
52 30 51
52 31 29
52 32 60
52 33 20
52 34 2
52 35 35
52 36 30
52 37 66
52 38 85
52 39 35
52 40 19
52 41 100
52 42 20
52 43 7
52 44 34
52 45 39
52 46 5
52 47 50
52 48 54
52 49 49
52 50 98
52 51 36
53 0 8
53 1 46
53 2 69
53 3 65
53 4 61
53 5 31
53 6 46
53 7 12
53 8 86
53 9 95
53 10 52
53 11 63
53 12 95
53 13 72
53 14 6
53 15 73
53 16 41
53 17 16
53 18 44
53 19 5
53 20 37
53 21 43
53 22 69
53 23 24
53 24 45
53 25 59
53 26 52
53 27 55
53 28 22
53 29 50
53 30 28
53 31 31
53 32 36
53 33 31
53 34 64
53 35 94
53 36 93
53 37 66
53 38 8
53 39 20
53 40 21
53 41 100
53 42 15
53 43 77
53 44 24
53 45 78
53 46 39
53 47 48
53 48 81
53 49 34
53 50 19
53 51 73
53 52 66
54 0 77
54 1 4
54 2 83
54 3 17
54 4 10
54 5 2
54 6 49
54 7 61
54 8 53
54 9 26
54 10 51
54 11 97
54 12 56
54 13 1
54 14 45
54 15 77
54 16 39
54 17 31
54 18 97
54 19 44
54 20 66
54 21 60
54 22 84
54 23 15
54 24 63
54 25 53
54 26 10
54 27 21
54 28 41
54 29 100
54 30 72
54 31 36
54 32 49
54 33 15
54 34 67
54 35 64
54 36 14
54 37 79
54 38 43
54 39 60
54 40 14
54 41 47
54 42 29
54 43 8
54 44 93
54 45 26
54 46 85
54 47 82
54 48 27
54 49 87
54 50 69
54 51 59
54 52 87
54 53 73
55 0 13
55 1 63
55 2 64
55 3 14
55 4 49
55 5 62
55 6 55
55 7 52
55 8 26
55 9 40
55 10 16
55 11 63
55 12 20
55 13 18
55 14 38
55 15 93
55 16 9
55 17 4
55 18 100
55 19 76
55 20 85
55 21 89
55 22 7
55 23 86
55 24 16
55 25 7
55 26 17
55 27 38
55 28 73
55 29 57
55 30 3
55 31 52
55 32 2
55 33 28
55 34 24
55 35 38
55 36 85
55 37 76
55 38 89
55 39 64
55 40 40
55 41 67
55 42 41
55 43 21
55 44 43
55 45 63
55 46 90
55 47 88
55 48 74
55 49 13
55 50 77
55 51 72
55 52 15
55 53 97
55 54 53
56 0 71
56 1 68
56 2 22
56 3 93
56 4 79
56 5 48
56 6 55
56 7 88
56 8 44
56 9 90
56 10 74
56 11 79
56 12 35
56 13 66
56 14 44
56 15 35
56 16 84
56 17 90
56 18 52
56 19 77
56 20 17
56 21 84
56 22 82
56 23 7
56 24 77
56 25 9
56 26 83
56 27 2
56 28 5
56 29 88
56 30 75
56 31 60
56 32 47
56 33 87
56 34 7
56 35 27
56 36 79
56 37 22
56 38 36
56 39 40
56 40 88
56 41 4
56 42 15
56 43 56
56 44 48
56 45 50
56 46 1
56 47 59
56 48 60
56 49 15
56 50 9
56 51 62
56 52 72
56 53 26
56 54 95
56 55 47
57 0 84
57 1 21
57 2 27
57 3 15
57 4 2
57 5 27
57 6 85
57 7 27
57 8 4
57 9 28
57 10 96
57 11 70
57 12 20
57 13 4
57 14 90
57 15 73
57 16 55
57 17 52
57 18 50
57 19 55
57 20 96
57 21 2
57 22 74
57 23 91
57 24 83
57 25 9
57 26 75
57 27 10
57 28 40
57 29 79
57 30 97
57 31 79
57 32 85
57 33 42
57 34 17
57 35 27
57 36 83
57 37 7
57 38 53
57 39 12
57 40 95
57 41 44
57 42 15
57 43 45
57 44 41
57 45 79
57 46 55
57 47 8
57 48 86
57 49 14
57 50 7
57 51 45
57 52 10
57 53 79
57 54 23
57 55 12
57 56 27
58 0 7
58 1 51
58 2 98
58 3 52
58 4 70
58 5 5
58 6 71
58 7 50
58 8 22
58 9 21
58 10 11
58 11 3
58 12 45
58 13 7
58 14 21
58 15 74
58 16 77
58 17 24
58 18 33
58 19 74
58 20 92
58 21 59
58 22 61
58 23 38
58 24 30
58 25 81
58 26 53
58 27 80
58 28 28
58 29 80
58 30 51
58 31 88
58 32 80
58 33 40
58 34 60
58 35 54
58 36 37
58 37 92
58 38 86
58 39 81
58 40 16
58 41 49
58 42 96
58 43 93
58 44 86
58 45 21
58 46 99
58 47 40
58 48 51
58 49 56
58 50 68
58 51 88
58 52 42
58 53 57
58 54 37
58 55 19
58 56 96
58 57 78
59 0 55
59 1 89
59 2 68
59 3 94
59 4 70
59 5 25
59 6 26
59 7 91
59 8 77
59 9 48
59 10 15
59 11 30
59 12 69
59 13 54
59 14 80
59 15 87
59 16 53
59 17 1
59 18 98
59 19 53
59 20 24
59 21 75
59 22 57
59 23 60
59 24 24
59 25 30
59 26 74
59 27 75
59 28 19
59 29 33
59 30 48
59 31 54
59 32 66
59 33 59
59 34 87
59 35 68
59 36 56
59 37 5
59 38 55
59 39 37
59 40 65
59 41 33
59 42 28
59 43 35
59 44 38
59 45 59
59 46 55
59 47 44
59 48 88
59 49 31
59 50 62
59 51 84
59 52 92
59 53 85
59 54 50
59 55 39
59 56 8
59 57 61
59 58 65
